3 24 1 10
12 4 1 6 10 5 17 20 10 13 6 5 6 5 8 13 19 18 20 3 15 18 20 9 
6.1 1.33 2.27 2.84 3.48 0.99 5.79 2.16 5.67 5.27 5.43 3.95 3.9 5.47 1.15 0.83 7.68 7.35 1.76 3.22 7.84 4.83 1.02 0.06 
4 4 4 4 4 4 4 4 4 4 4 4 4 4 4 4 4 4 4 4 4 4 4 4 
7.84 3.91 3.01 7.55 6.49 3.73 0.06 1.06 3.56 2.55 1.99 1.1 5.56 5.37 5.3 6.83 3.7 0.37 5.65 0.17 7.83 1.81 0.75 1.64 
1 1 1 1 1 1 1 1 1 1 1 1 1 1 1 1 1 1 1 1 1 1 1 1 
1 1 1 1 1 1 1 1 1 1 1 1 1 1 1 1 1 1 1 1 1 1 1 1 
1 1 1 1 1 1 1 1 1 1 1 1 1 1 1 1 1 1 1 1 1 1 1 1 
0.01 0.01 0.01 0.01 0.01 0.01 0.01 0.01 0.01 0.01 0.01 0.01 0.01 0.01 0.01 0.01 0.01 0.01 0.01 0.01 0.01 0.01 0.01 0.01 
0.02 0.02 0.02 0.02 0.02 0.02 0.02 0.02 0.02 0.02 0.02 0.02 0.02 0.02 0.02 0.02 0.02 0.02 0.02 0.02 0.02 0.02 0.02 0.02 
1 1 1 1 1 1 1 1 1 1 1 1 1 1 1 1 1 1 1 1 1 1 1 1 
